results/LPRelaxation_ineq/BBER_BBU/BBER_BBU_lp.sol
# Solution for model BBER_BBU
# Objective value = 6.4970128419877130e+02
p[BBU_111_B_0_1_21_dep_right,BBU_13_A_0_1_21_arr_right] 0
p[BBU_111_B_0_1_21_dep_right,BBU_111_B_200_2_21_arr_right] 0
p[BBU_13_A_0_1_21_arr_right,BBU_13_A_0_1_21_dep_left] 0
p[BBU_13_A_0_1_21_arr_right,BBU_13_A_200_2_21_arr_right] 0
p[BBU_13_A_0_1_21_dep_left,BBU_112_B_0_1_21_arr_right] 0
p[BBU_13_A_0_1_21_dep_left,BBU_13_A_200_2_21_arr_right] 0
p[BBU_112_B_0_1_21_arr_right,BBU_112_B_0_1_21_dep_right] 0
p[BBU_112_B_0_1_21_arr_right,BBU_112_B_200_2_21_arr_right] 0
p[BBU_112_B_0_1_21_dep_right,henkel_0_S2_W_BBER_BLRD_0_S2_W_BLRD_BBER_0_0_1_12] 1
p[BBU_112_B_0_1_21_dep_right,henkel_0_S2_WI_BBU_BLRD_0_S2_WI_BLRD_BBU_0_0_1_12] 1
p[BBU_112_B_0_1_21_dep_right,BBU_112_B_200_2_21_arr_right] 0
p[henkel_0_S2_W_BBER_BLRD_0_S2_W_BLRD_BBER_0_0_1_12,BBU_111_B_0_1_21_arr_right] 0
p[henkel_0_S2_WI_BBU_BLRD_0_S2_WI_BLRD_BBU_0_0_1_12,BBU_111_B_0_1_21_arr_right] 0
p[BBU_111_B_0_1_21_arr_right,BBU_111_B_0_1_21_dep_right] 0
p[BBU_111_B_0_1_21_arr_right,BBU_111_B_200_2_21_arr_right] 0
p[BBU_111_B_200_2_21_dep_right,BBU_13_A_200_2_21_arr_right] 0
p[BBU_111_B_200_2_21_dep_right,BBU_111_B_0_1_21_arr_right] 1
p[BBU_13_A_200_2_21_arr_right,BBU_13_A_200_2_21_dep_left] 0
p[BBU_13_A_200_2_21_arr_right,BBU_13_A_0_1_21_arr_right] 1
p[BBU_13_A_200_2_21_dep_left,BBU_112_B_200_2_21_arr_right] 0
p[BBU_13_A_200_2_21_dep_left,BBU_13_A_0_1_21_arr_right] 1
p[BBU_112_B_200_2_21_arr_right,BBU_112_B_200_2_21_dep_right] 0
p[BBU_112_B_200_2_21_arr_right,BBU_112_B_0_1_21_arr_right] 1
p[BBU_112_B_200_2_21_dep_right,henkel_0_S2_W_BBER_BLRD_0_S2_W_BLRD_BBER_0_200_2_12] 1
p[BBU_112_B_200_2_21_dep_right,henkel_0_S2_WI_BBU_BLRD_0_S2_WI_BLRD_BBU_0_200_2_12] 1
p[BBU_112_B_200_2_21_dep_right,BBU_112_B_0_1_21_arr_right] 1
p[henkel_0_S2_W_BBER_BLRD_0_S2_W_BLRD_BBER_0_200_2_12,BBU_111_B_200_2_21_arr_right] 0
p[henkel_0_S2_WI_BBU_BLRD_0_S2_WI_BLRD_BBU_0_200_2_12,BBU_111_B_200_2_21_arr_right] 0
p[BBU_111_B_200_2_21_arr_right,BBU_111_B_200_2_21_dep_right] 0
p[BBU_111_B_200_2_21_arr_right,BBU_111_B_0_1_21_arr_right] 1
pi[BBU_111_B_0_1_21_dep_right] 3.1938860971524310e+01
pi[BBU_13_A_0_1_21_arr_right] 4.6938860971524306e+01
pi[BBU_13_A_0_1_21_dep_left] 66.9388609715243
pi[BBU_112_B_0_1_21_arr_right] 81.9388609715243
pi[BBU_112_B_0_1_21_dep_right] 1.2491876046901174e+02
pi[henkel_0_S2_W_BBER_BLRD_0_S2_W_BLRD_BBER_0_0_1_12] 0
pi[henkel_0_S2_WI_BBU_BLRD_0_S2_WI_BLRD_BBU_0_0_1_12] 0
pi[BBU_111_B_0_1_21_arr_right] 2.6938860971524310e+01
pi[BBU_111_B_200_2_21_dep_right] 68.9388609715243
pi[BBU_13_A_200_2_21_arr_right] 83.9388609715243
pi[BBU_13_A_200_2_21_dep_left] 1.2691876046901174e+02
pi[BBU_112_B_200_2_21_arr_right] 1.4191876046901174e+02
pi[BBU_112_B_200_2_21_dep_right] 1.4691876046901174e+02
pi[henkel_0_S2_W_BBER_BLRD_0_S2_W_BLRD_BBER_0_200_2_12] 0
pi[henkel_0_S2_WI_BBU_BLRD_0_S2_WI_BLRD_BBU_0_200_2_12] 0
pi[BBU_111_B_200_2_21_arr_right] 5.1938860971524306e+01
y[BBU_111_B_0_1_21_dep_right,BBU_13_A_0_1_21_arr_right] 0
y[BBU_13_A_0_1_21_arr_right,BBU_13_A_0_1_21_dep_left] 0
y[BBU_13_A_0_1_21_dep_left,BBU_112_B_0_1_21_arr_right] 0
y[BBU_112_B_0_1_21_arr_right,BBU_112_B_0_1_21_dep_right] 3.7979899497487438e+01
y[BBU_112_B_0_1_21_dep_right,henkel_0_S2_W_BBER_BLRD_0_S2_W_BLRD_BBER_0_0_1_12] 2.0305555555555568e+01
y[BBU_112_B_0_1_21_dep_right,henkel_0_S2_WI_BBU_BLRD_0_S2_WI_BLRD_BBU_0_0_1_12] 5.8653126744835390e+01
y[henkel_0_S2_W_BBER_BLRD_0_S2_W_BLRD_BBER_0_0_1_12,BBU_111_B_0_1_21_arr_right] 0
y[henkel_0_S2_WI_BBU_BLRD_0_S2_WI_BLRD_BBU_0_0_1_12,BBU_111_B_0_1_21_arr_right] 1.3673925181462989e+01
y[BBU_111_B_0_1_21_arr_right,BBU_111_B_0_1_21_dep_right] 0
y[BBU_111_B_200_2_21_dep_right,BBU_13_A_200_2_21_arr_right] 0
y[BBU_13_A_200_2_21_arr_right,BBU_13_A_200_2_21_dep_left] 2.2979899497487438e+01
y[BBU_13_A_200_2_21_dep_left,BBU_112_B_200_2_21_arr_right] 0
y[BBU_112_B_200_2_21_arr_right,BBU_112_B_200_2_21_dep_right] 0
y[BBU_112_B_200_2_21_dep_right,henkel_0_S2_W_BBER_BLRD_0_S2_W_BLRD_BBER_0_200_2_12] 0
y[BBU_112_B_200_2_21_dep_right,henkel_0_S2_WI_BBU_BLRD_0_S2_WI_BLRD_BBU_0_200_2_12] 3.2180904522613005e+01
y[henkel_0_S2_W_BBER_BLRD_0_S2_W_BLRD_BBER_0_200_2_12,BBU_111_B_200_2_21_arr_right] 2.5833333333333361e+01
y[henkel_0_S2_WI_BBU_BLRD_0_S2_WI_BLRD_BBU_0_200_2_12,BBU_111_B_200_2_21_arr_right] 3.5062814070351749e+01
y[BBU_111_B_200_2_21_arr_right,BBU_111_B_200_2_21_dep_right] 12
y_bar[BBU_111_B_0_1_21_dep_right,BBU_13_A_0_1_21_arr_right] 0
y_bar[BBU_13_A_0_1_21_arr_right,BBU_13_A_0_1_21_dep_left] 0
y_bar[BBU_13_A_0_1_21_dep_left,BBU_112_B_0_1_21_arr_right] 0
y_bar[BBU_112_B_0_1_21_arr_right,BBU_112_B_0_1_21_dep_right] 3.7979899497487438e+01
y_bar[BBU_112_B_0_1_21_dep_right,henkel_0_S2_W_BBER_BLRD_0_S2_W_BLRD_BBER_0_0_1_12] 0
y_bar[BBU_112_B_0_1_21_dep_right,henkel_0_S2_WI_BBU_BLRD_0_S2_WI_BLRD_BBU_0_0_1_12] 0
y_bar[henkel_0_S2_W_BBER_BLRD_0_S2_W_BLRD_BBER_0_0_1_12,BBU_111_B_0_1_21_arr_right] 0
y_bar[henkel_0_S2_WI_BBU_BLRD_0_S2_WI_BLRD_BBU_0_0_1_12,BBU_111_B_0_1_21_arr_right] 0
y_bar[BBU_111_B_0_1_21_arr_right,BBU_111_B_0_1_21_dep_right] 0
y_bar[BBU_111_B_200_2_21_dep_right,BBU_13_A_200_2_21_arr_right] 0
y_bar[BBU_13_A_200_2_21_arr_right,BBU_13_A_200_2_21_dep_left] 2.2979899497487438e+01
y_bar[BBU_13_A_200_2_21_dep_left,BBU_112_B_200_2_21_arr_right] 0
y_bar[BBU_112_B_200_2_21_arr_right,BBU_112_B_200_2_21_dep_right] 0
y_bar[BBU_112_B_200_2_21_dep_right,henkel_0_S2_W_BBER_BLRD_0_S2_W_BLRD_BBER_0_200_2_12] 0
y_bar[BBU_112_B_200_2_21_dep_right,henkel_0_S2_WI_BBU_BLRD_0_S2_WI_BLRD_BBU_0_200_2_12] 0
y_bar[henkel_0_S2_W_BBER_BLRD_0_S2_W_BLRD_BBER_0_200_2_12,BBU_111_B_200_2_21_arr_right] 0
y_bar[henkel_0_S2_WI_BBU_BLRD_0_S2_WI_BLRD_BBU_0_200_2_12,BBU_111_B_200_2_21_arr_right] 0
y_bar[BBU_111_B_200_2_21_arr_right,BBU_111_B_200_2_21_dep_right] 12
h[BBU_111_B_0_1_21_dep_right,BBU_13_A_0_1_21_arr_right] 1
h[BBU_13_A_0_1_21_arr_right,BBU_13_A_0_1_21_dep_left] 1
h[BBU_13_A_0_1_21_dep_left,BBU_112_B_0_1_21_arr_right] 1
h[BBU_112_B_0_1_21_arr_right,BBU_112_B_0_1_21_dep_right] 1
h[BBU_112_B_0_1_21_dep_right,henkel_0_S2_W_BBER_BLRD_0_S2_W_BLRD_BBER_0_0_1_12] 8.9796203238414241e-01
h[BBU_112_B_0_1_21_dep_right,henkel_0_S2_WI_BBU_BLRD_0_S2_WI_BLRD_BBU_0_0_1_12] 1.0203796761585632e-01
h[henkel_0_S2_W_BBER_BLRD_0_S2_W_BLRD_BBER_0_0_1_12,BBU_111_B_0_1_21_arr_right] 8.9796203238414363e-01
h[henkel_0_S2_WI_BBU_BLRD_0_S2_WI_BLRD_BBU_0_0_1_12,BBU_111_B_0_1_21_arr_right] 1.0203796761585633e-01
h[BBU_111_B_0_1_21_arr_right,BBU_111_B_0_1_21_dep_right] 1
h[BBU_111_B_200_2_21_dep_right,BBU_13_A_200_2_21_arr_right] 1
h[BBU_13_A_200_2_21_arr_right,BBU_13_A_200_2_21_dep_left] 1
h[BBU_13_A_200_2_21_dep_left,BBU_112_B_200_2_21_arr_right] 1
h[BBU_112_B_200_2_21_arr_right,BBU_112_B_200_2_21_dep_right] 1
h[BBU_112_B_200_2_21_dep_right,henkel_0_S2_W_BBER_BLRD_0_S2_W_BLRD_BBER_0_200_2_12] 0.870184254606365
h[BBU_112_B_200_2_21_dep_right,henkel_0_S2_WI_BBU_BLRD_0_S2_WI_BLRD_BBU_0_200_2_12] 1.2981574539363505e-01
h[henkel_0_S2_W_BBER_BLRD_0_S2_W_BLRD_BBER_0_200_2_12,BBU_111_B_200_2_21_arr_right] 8.7018425460636473e-01
h[henkel_0_S2_WI_BBU_BLRD_0_S2_WI_BLRD_BBU_0_200_2_12,BBU_111_B_200_2_21_arr_right] 1.2981574539363505e-01
h[BBU_111_B_200_2_21_arr_right,BBU_111_B_200_2_21_dep_right] 1
b[0] 1
b[1] 1.0203796761585633e-01
b[2] 8.9796203238414363e-01
b[3] 1.2981574539363505e-01
b[4] 0.870184254606365
